local_stuff/loop_inv_stuff/loop_inv_oai/repo/z3/106.out
STDOUT:
unsat
(error "line 22 column 10: model is not available")


STDERR:
